# Objective value = 2.9753929109916373e+02
x[0] 0
x[1] 0
x[2] 9.9999961521350811e-01
x[3] 1
x[4] 9.9999971141013078e-01
x[5] 0
x[6] 0
x[7] 0
x[8] 1
x[9] 2.4042160979684147e-07
x[10] 1
x[11] 1
x[12] 1
x[13] 1
x[14] 0
x[15] 1
x[16] 0
x[17] 1
x[18] 1
x[19] 1
x[20] 1
x[21] 0
x[22] 0
x[23] 1.0000002404104313e+00
x[24] 1
x[25] 0
x[26] 0
x[27] 0
x[28] 0
x[29] 0
x[30] 0
x[31] 1
x[32] 1
x[33] 1
x[34] 0
x[35] 0
x[36] 1
x[37] 0
x[38] 0
x[39] 0
x[40] 0
x[41] 0
x[42] 0
x[43] 0
x[44] 0
x[45] 0
x[46] 1
x[47] 0
x[48] 1
x[49] 1
x[50] 0
x[51] 0
x[52] 0
x[53] 1.00000028852185
x[54] 0
x[55] 0
x[56] 1
x[57] 1
x[58] 3.8470290672877392e-07
x[59] 1
x[60] 3.8473398317453556e-07
x[61] 9.9999961854684150e-01
x[62] 0
x[63] 0
x[64] 0
x[65] 0
x[66] 0
x[67] 1
x[68] 0
x[69] 1
x[70] 1
x[71] 0
x[72] 1.0000002404452393e+00
x[73] 0
x[74] 9.9999988308755416e-01
x[75] 0
x[76] 1
x[77] 1
x[78] 1.9232057699898212e-07
x[79] 0
x[80] 0
x[81] 0
x[82] 1
x[83] 0
x[84] 1
x[85] 1
x[86] 0
x[87] 9.9999988050337074e-01
x[88] 1
x[89] 1
x[90] 1.0000002403579948e+00
x[91] 0
x[92] 0
x[93] 4.3280879792965466e-07
x[94] 9.9999956711519666e-01
x[95] 1
x[96] 1
x[97] 0
x[98] 0
x[99] 1
x[100] 1
x[101] 0
x[102] 1
x[103] 1
x[104] 1
x[105] 0
x[106] 0
x[107] 1
x[108] 0
x[109] -2.8525653502105674e-07
x[110] 0
x[111] 1
x[112] 1
x[113] 1
x[114] 1
x[115] 0
x[116] 0
x[117] 1
x[118] 0
x[119] 3.8472191713678824e-07
x[120] 0
x[121] 0
x[122] 1
x[123] 1
x[124] 1
x[125] 1
x[126] 1
x[127] 1.0000001682909738e+00
x[128] 1
x[129] 1
x[130] 0
x[131] 1
x[132] 1
x[133] 1.9224178419893577e-07
x[134] 1
x[135] 0
x[136] 1
x[137] 0
x[138] 0
x[139] 1
x[140] 0
x[141] 9.9999961854684138e-01
x[142] 3.3640350606195732e-07
x[143] 1
x[144] 1.0000003365838954e+00
x[145] 1.0000002403606447e+00
x[146] 0
x[147] 4.0865044260469037e-07
x[148] 0
x[149] 0
x[150] 0
x[151] 1
x[152] 1
x[153] 1
x[154] 1
x[155] 1.0000002403907118e+00
x[156] 1.0000003846499137e+00
x[157] 0.999999615213508
x[158] 0
x[159] 0
x[160] 0
x[161] 0
x[162] 0
x[163] 1
x[164] 0
x[165] 0
x[166] 0
x[167] 9.9999961859935016e-01
x[168] 1
x[169] 1
x[170] 0
x[171] 0
x[172] 1.0000001922862038e+00
x[173] 0
x[174] 1
x[175] 0
x[176] 1
x[177] 0
x[178] 0
x[179] 1
x[180] 0
x[181] 0
x[182] 1
x[183] 0
x[184] 1
x[185] 0
x[186] 1
x[187] 1
x[188] 0
x[189] 0
x[190] 1
x[191] 0
x[192] 1
x[193] 0
x[194] 1
x[195] 0
x[196] 0
x[197] 1
x[198] 0
x[199] 9.9999966331181966e-01
x[200] 0
x[201] 1.0000002885425492e+00
x[202] 0
x[203] 0
x[204] 0
x[205] 1
x[206] 1.9208409913330742e-07
x[207] 0
x[208] 1
x[209] 9.9999983165591044e-01
x[210] 4.3282060491402447e-07
x[211] 0
x[212] 1.6828680986332202e-07
x[213] 1
x[214] 1
x[215] -1.9239324555719861e-07
x[216] 1
x[217] 0
x[218] 1
x[219] 1
x[220] 0
x[221] 1
x[222] 0
x[223] 1
x[224] 0
x[225] 3.8468744509092918e-07
x[226] -1.6495764043406889e-07
x[227] 0
x[228] 0
x[229] 0
x[230] 0
x[231] 0
x[232] 0
x[233] -2.4049155733507632e-07
x[234] 0
x[235] 1
x[236] 0
x[237] 1.2013937395307297e-07
x[238] 9.9999983498924383e-01
x[239] 0
x[240] 0
x[241] 1
x[242] 0
x[243] 1
x[244] 0
x[245] 9.9999976450844186e-01
x[246] 0
x[247] 1
x[248] 1
x[249] 1
x[250] 9.9999981094008672e-01
x[251] -5.7717973767079656e-07
x[252] -2.3715822488992141e-07
x[253] 0
x[254] 1
x[255] 1
x[256] 0
x[257] 0
x[258] 1
x[259] 0
x[260] 1
x[261] 1
x[262] 9.9999961854684127e-01
x[263] 1
x[264] 1
x[265] 1.0000001442453579e+00
x[266] 1
x[267] 1
x[268] 1
x[269] 1
x[270] 1
x[271] 1
x[272] 0
x[273] 1
x[274] 1
x[275] 0
x[276] 1
x[277] 0
x[278] 0
x[279] 0
x[280] 0
x[281] 0
x[282] 0
x[283] 0
x[284] 3.8464617582298715e-07
x[285] 3.36475691706784e-07
x[286] 0
x[287] 0
x[288] 3.6069106247102933e-07
x[289] 1
x[290] 0
x[291] 0
x[292] 0
x[293] 1
x[294] 1
x[295] 0
x[296] 1
x[297] 1
x[298] 9.9999961854684138e-01
x[299] 1
x[300] 0
x[301] 1
x[302] 0
x[303] 0
x[304] 1
x[305] 0
x[306] 0
x[307] 0
x[308] 1
x[309] 0
x[310] 1
x[311] 0
x[312] 0
x[313] 1
x[314] 1
x[315] 0
x[316] 9.9999961854684150e-01
x[317] 0
x[318] 1
x[319] 0
x[320] 0
x[321] 0
x[322] 0
x[323] 0
x[324] 1
x[325] 0
x[326] 0
x[327] 1
x[328] 9.9999971141013078e-01
x[329] 0
x[330] 0
x[331] 1
x[332] -1.4429493533363313e-07
x[333] 0
x[334] -2.8858986844682022e-07
x[335] 0
x[336] 2.4043634384478982e-07
x[337] 0
x[338] 0
x[339] -1.4091202457217252e-07
x[340] 3.8458715891489357e-07
x[341] 1
x[342] 1
x[343] 0
x[344] 1
x[345] 1
x[346] 0
x[347] 0
x[348] 9.9999980760675344e-01
x[349] 0
x[350] 1
x[351] 9.9999983165591044e-01
x[352] 0
x[353] 1
x[354] 0
x[355] 1
x[356] 0
x[357] 0
x[358] 0
x[359] 1
x[360] 1
x[361] 1
x[362] 1
x[363] 0
x[364] 0
x[365] 1
x[366] 3.8462815405253340e-07
x[367] 1
x[368] 0
x[369] 1.6825123601979026e-07
x[370] 1.0000002404236028e+00
x[371] 0
x[372] 0
x[373] 1
x[374] 0
x[375] 0
x[376] 1
x[377] 1
x[378] 1
x[379] 1
x[380] 1
x[381] 1
x[382] 1.6828698399499205e-07
x[383] 1
x[384] 1
x[385] 1
x[386] 0
x[387] 0
x[388] 1
x[389] 1
x[390] 0
x[391] 0
x[392] 1
x[393] 0
x[394] 0
x[395] 1
x[396] 0
x[397] 0
x[398] 9.9999973869514724e-01
x[399] 9.9999961854684150e-01
x[400] 1
x[401] 0
x[402] 9.9999956711519655e-01
x[403] 0
x[404] 0
x[405] 0
x[406] 0
x[407] 0
x[408] 0
x[409] 0
x[410] 1
x[411] 0
x[412] 0
x[413] 1
x[414] 1.0000001681453057e+00
x[415] 9.9999961521350789e-01
x[416] 1
x[417] 3.6068350725627621e-07
x[418] 1
x[419] 1
x[420] 1
x[421] 3.6046745805356582e-07
x[422] 0
x[423] 0
x[424] 0
x[425] 1
x[426] 0
x[427] 1
x[428] 1
x[429] 1
x[430] 0
x[431] 0
x[432] 0
x[433] 1.9230794099273024e-07
x[434] 1
x[435] 0
x[436] 1
x[437] 4.3281549817895875e-07
x[438] 0
x[439] 1
x[440] 1
x[441] 1
x[442] 1
x[443] 0
x[444] 1
x[445] 1
x[446] 1.9232116202726538e-07
x[447] 0
x[448] 1
x[449] 0
x[450] 0
x[451] 1.9028278980805605e-07
x[452] 1
x[453] 0.999999759508442
x[454] 0
x[455] 1
x[456] 1
x[457] 2.1524062246129721e-07
x[458] 1
x[459] -1.6834408955723745e-07
x[460] 0
x[461] 1
x[462] 0
x[463] 1
x[464] 1
x[465] 0
x[466] 1
x[467] 3.8445794527090062e-07
x[468] 0
x[469] 0
x[470] 1
x[471] 0
x[472] 1
x[473] 1.9231053671600075e-07
x[474] -2.3822598709068098e-07
x[475] 0
x[476] 1
x[477] 1
x[478] 0
x[479] 1
x[480] 1
x[481] 1
x[482] 1
x[483] 0
x[484] 0
x[485] 0
x[486] 1
x[487] 2.6447976093841835e-07
x[488] 0
x[489] 1
x[490] 0
x[491] 1
x[492] 1
x[493] 1
x[494] 0
x[495] 0
x[496] 0
x[497] 3.3651740124366485e-07
x[498] 1
x[499] 1.0000001682827340e+00
x[500] 1
x[501] 0
x[502] 0
x[503] 0
x[504] 1
x[505] 0
x[506] 1
x[507] 3.8461508900657307e-07
x[508] 0
x[509] 0
x[510] 0
x[511] 1
x[512] 9.9999963926266389e-01
x[513] 0
x[514] 1.0000001441505544e+00
x[515] 1
x[516] 0
x[517] 1
x[518] 1
x[519] 1
x[520] 1
x[521] 0
x[522] 1
x[523] 1
x[524] 0
x[525] 0
x[526] 1
x[527] 1
x[528] 1
x[529] 0
x[530] 1
x[531] 0
x[532] 1
x[533] 1
x[534] 1
x[535] 0
x[536] 9.9999975950844189e-01
x[537] 0
x[538] 1
x[539] 1
x[540] 2.6407626561769721e-07
x[541] 1
x[542] 1
x[543] 0
x[544] 1
x[545] 1.0000001441437742e+00
x[546] 3.8456886058937257e-07
x[547] 5.2901748330060292e-07
x[548] 1
x[549] 0
x[550] 1.0000002404186001e+00
x[551] 0
x[552] 1
x[553] 0
x[554] 1
x[555] -1.4429493404244025e-07
x[556] -2.5954071428924280e-07
x[557] 1
x[558] 0
x[559] 0
x[560] 1
x[561] 0
x[562] 1
x[563] 0
x[564] 0
x[565] 0
x[566] 1
x[567] 9.9999957044853049e-01
x[568] 1
x[569] 0
x[570] 1
x[571] 0
x[572] 0
x[573] 1
x[574] 1
x[575] 0
x[576] 1
x[577] 0
x[578] 1
x[579] 1
x[580] -2.4049155811844384e-07
x[581] 1
x[582] 1
x[583] 0
x[584] 0
x[585] 1
x[586] 1
x[587] 0
x[588] 1
x[589] 0
x[590] 1
x[591] 1
x[592] -1.6495764043406889e-07
x[593] 0
x[594] 1
x[595] 0
x[596] 0
x[597] 5.2788001464582978e-07
x[598] 0
x[599] 0
x[600] 9.9999966627520687e-01
x[601] 1
x[602] 0
x[603] 0
x[604] 2.4034129382651212e-07
x[605] 0
x[606] 0
x[607] 0
x[608] 0
x[609] 6.0108947019315832e-07
x[610] 1
x[611] 0
x[612] 1.0000001682844588e+00
x[613] 1
x[614] 9.9999981101217128e-01
x[615] 1
x[616] 0
x[617] 1
x[618] 0
x[619] 1
x[620] 1.0000001442408766e+00
x[621] 0
x[622] 0
x[623] 1
x[624] 1
x[625] 0
x[626] 1
x[627] -2.4049155811844384e-07
x[628] 1
x[629] 0
x[630] 0
x[631] 0
x[632] 0
x[633] 0
x[634] 1
x[635] 1
x[636] 0
x[637] 1
x[638] 1
x[639] 0
x[640] 0
x[641] 0
x[642] 0
x[643] 2.8848779430693012e-07
x[644] 0
x[645] 1
x[646] 1
x[647] 1
x[648] 1
x[649] -1.6834408963302387e-07
x[650] 9.9999975950844233e-01
x[651] 0
x[652] 1
x[653] 0
x[654] 9.9999957051272836e-01
x[655] -1.4429493377932090e-07
x[656] 0
x[657] 9.9999975950844311e-01
x[658] 1
x[659] 1
x[660] 1
x[661] 1
x[662] 1
x[663] 0
x[664] 0
x[665] 0
x[666] 1
x[667] 0
x[668] 1.0000002400257209e+00
x[669] 1
x[670] 0
x[671] 0
x[672] 1
x[673] 1
x[674] 1
x[675] 1
x[676] 0
x[677] -2.4049155689098711e-07
x[678] 1
x[679] 9.9999983165591044e-01
x[680] 0
x[681] 0
x[682] 1
x[683] 0
x[684] 0
x[685] 9.9999956711519655e-01
x[686] 1
x[687] 0
x[688] 1
x[689] 0
x[690] 1.2003187107513850e-07
x[691] 0
x[692] 0
x[693] 0
x[694] 1.2016222733785319e-07
x[695] 0
x[696] 0
x[697] 1.0000001441943143e+00
x[698] 1
x[699] -2.8858986835439008e-07
x[700] 1
x[701] 0
x[702] 0
x[703] 9.9999961521350811e-01
x[704] 0
x[705] 0
x[706] 0
x[707] 9.9999959449768494e-01
x[708] 1
x[709] 0
x[710] -2.4049155744273241e-07
x[711] 0
x[712] 0
x[713] 0
x[714] 1
x[715] 9.9999981094008672e-01
x[716] 1
x[717] 3.8472581761179564e-07
x[718] 9.9999980760675344e-01
x[719] 1.00000033660007
x[720] 1
x[721] 1
x[722] 0
x[723] 0
x[724] 1
x[725] 9.9999963926266389e-01
x[726] 3.8470577216932318e-07
x[727] 0
x[728] 1
x[729] 3.8467927027804817e-07
x[730] 1
x[731] 0
x[732] 0
x[733] 0
x[734] 1
x[735] 1
x[736] 0
x[737] 1
x[738] 1.0000001682915449e+00
x[739] 0
x[740] 0
x[741] 1
x[742] 0
x[743] 1
x[744] 3.8450234233165909e-07
x[745] 0
x[746] 2.4033404462730719e-07
x[747] 1
x[748] 0
x[749] 1
x[750] 1
x[751] 0
x[752] -2.3715822486948668e-07
x[753] 3.8468382379223010e-07
x[754] 1
x[755] 0
x[756] -1.6834408963302387e-07
x[757] 9.9999961863042663e-01
x[758] 0
x[759] 0
x[760] 1
x[761] 1
x[762] 1
x[763] 1
x[764] 0
x[765] 1
x[766] 0
x[767] 1
x[768] 1
x[769] 0
x[770] 1
x[771] 0
x[772] 1
x[773] 1
x[774] 1
x[775] 1
x[776] 0
x[777] 0
x[778] 0
x[779] 1
x[780] 0
x[781] 1
x[782] 0
x[783] 0
x[784] 1
x[785] 1
x[786] 1
x[787] 1
x[788] 0
x[789] -1.8895287043942626e-07
x[790] 1
x[791] 1
x[792] 1
x[793] 0
x[794] -2.85256535051069e-07
x[795] 1
x[796] 0
x[797] 0
x[798] 0
x[799] 0
x[800] 0
x[801] 0
x[802] 0
x[803] 0
x[804] 0
x[805] 0
x[806] 3.84722680243958e-07
x[807] 1
x[808] 0
x[809] 0
x[810] 1
x[811] 0
x[812] 0
x[813] -1.6834409133359429e-07
x[814] 1
x[815] 0
x[816] 1.0000001682913693e+00
x[817] 1.0000001015921027e+00
x[818] 1
x[819] 1
x[820] 1
x[821] 0
x[822] 1
x[823] 1
x[824] 1
x[825] 0
x[826] 0
x[827] 0
x[828] 1
x[829] 1
x[830] 1
x[831] 0
x[832] 0
x[833] 0
x[834] 0
x[835] 1
x[836] 3.8470760396178410e-07
x[837] 1
x[838] 9.9999961521350811e-01
x[839] 1.2010051051653580e-07
x[840] 1
x[841] 1
x[842] 0
x[843] 1
x[844] 0
x[845] 1
x[846] 0
x[847] 1
x[848] 1.6820881840360654e-07
x[849] 1
x[850] 1
x[851] 9.9999987975422167e-01
x[852] 0
x[853] 1
x[854] 9.9999963926266389e-01
x[855] 1
x[856] 1
x[857] 1
x[858] 0
x[859] 1
x[860] -2.8369088896125387e-07
x[861] 1
x[862] 1
x[863] 0
x[864] 1
x[865] 0
x[866] 9.9999983165591033e-01
x[867] 0
x[868] 0
x[869] 1
x[870] 0
x[871] 0
x[872] 1
x[873] 1
x[874] 1
x[875] 0
x[876] 1
x[877] 0.99999947431585
x[878] 0
x[879] 3.8473667829035708e-07
x[880] 1
x[881] 0
x[882] 0
x[883] 1
x[884] 0
x[885] 1
x[886] 1
x[887] 1
x[888] 0
x[889] 0
x[890] -2.4049155822325474e-07
x[891] -1.9239324555719861e-07
x[892] 9.9999987975422111e-01
x[893] 0
x[894] 0
x[895] -1.6501075629969054e-07
x[896] 1
x[897] 1
x[898] 1
x[899] 0
x[900] 1.0000001682921467e+00
x[901] 0
x[902] 0
x[903] 0
x[904] 1
x[905] 1
x[906] 1
x[907] 0
x[908] 0
x[909] 1
x[910] 0
x[911] 1
x[912] 1
x[913] 0
x[914] 0
x[915] 1
x[916] 1
x[917] 9.9999976289698944e-01
x[918] 0
x[919] 0
x[920] 1
x[921] 0
x[922] 0
x[923] 1.0000002403505230e+00
x[924] 1
x[925] 1
x[926] 1
x[927] 1
x[928] 0
x[929] 0
x[930] 1
x[931] 0
x[932] 0
x[933] 1
x[934] 1
x[935] -1.4086098084098509e-07
x[936] 1.0000001442421635e+00
x[937] 0
x[938] 1
x[939] 1.6818318259150893e-07
x[940] 0
x[941] 0
x[942] 4.0876237331730849e-07
x[943] 0
x[944] 9.9999981102539237e-01
x[945] 0
x[946] 1.0000002885088519e+00
x[947] 0
x[948] 3.8472457765365162e-07
x[949] 1
x[950] 1
x[951] 1
x[952] 0.999999615213508
x[953] 1
x[954] 0
x[955] 0
x[956] 0
x[957] 1
x[958] 1
x[959] 1.9231788685601825e-07
x[960] 1
x[961] 0
x[962] 0
x[963] -2.8858986844682022e-07
x[964] 0
x[965] 1
x[966] 1
x[967] 1
x[968] 1
x[969] 0
x[970] 1
x[971] 1
x[972] 3.3656850204499928e-07
x[973] 1
x[974] 1
x[975] 1
x[976] 0
x[977] 0
x[978] 0
x[979] 1
x[980] 1
x[981] 1
x[982] 1
x[983] 1
x[984] 1
x[985] 0
x[986] 0
x[987] 1
x[988] 1
x[989] -4.0883564778049220e-07
x[990] 0
x[991] 1
x[992] 0
x[993] 1
x[994] 9.9999975950844178e-01
x[995] 1
x[996] 1
x[997] 1
x[998] 0
x[999] 0
